(set-option :produce-models true)
(set-info :source |printed by MathSAT|)
(declare-fun x4 () Real)
(declare-fun x5 () Real)
(declare-fun x6 () Real)
(declare-fun x1 () Real)
(declare-fun x2 () Real)
(declare-fun z () Real)
(declare-fun x3 () Real)
(define-fun .def_99 () Bool (= x6 z))
(define-fun .def_25 () Real (* (to_real (- 10003)) x2))
(define-fun .def_26 () Real (+ x1 .def_25))
(define-fun .def_27 () Bool (= .def_26 (to_real 0)))
(define-fun .def_18 () Real (* (to_real (- 120030)) x2))
(define-fun .def_19 () Real (+ x1 .def_18))
(define-fun .def_20 () Bool (= .def_19 (to_real 0)))
(define-fun .def_28 () Bool (or .def_20 .def_27))
(define-fun .def_10 () Bool (= x1 (/ 1 100002)))
(define-fun .def_7 () Bool (= x1 (/ 1 100000)))
(define-fun .def_11 () Bool (or .def_7 .def_10))
(define-fun .def_92 () Bool (and .def_11 .def_28))
(define-fun .def_41 () Real (* (to_real (- 199900)) x3))
(define-fun .def_42 () Real (+ x2 .def_41))
(define-fun .def_43 () Bool (= .def_42 (to_real 0)))
(define-fun .def_34 () Real (* (to_real (- 100310)) x3))
(define-fun .def_35 () Real (+ x2 .def_34))
(define-fun .def_36 () Bool (= .def_35 (to_real 0)))
(define-fun .def_44 () Bool (or .def_36 .def_43))
(define-fun .def_93 () Bool (and .def_44 .def_92))
(define-fun .def_57 () Real (* (to_real (- 800000)) x4))
(define-fun .def_58 () Real (+ x3 .def_57))
(define-fun .def_59 () Bool (= .def_58 (to_real 0)))
(define-fun .def_50 () Real (* (to_real (- 400000)) x4))
(define-fun .def_51 () Real (+ x3 .def_50))
(define-fun .def_52 () Bool (= .def_51 (to_real 0)))
(define-fun .def_60 () Bool (or .def_52 .def_59))
(define-fun .def_94 () Bool (and .def_60 .def_93))
(define-fun .def_72 () Real (* (to_real 8000) x5))
(define-fun .def_73 () Real (+ x4 .def_72))
(define-fun .def_74 () Bool (= .def_73 (to_real 0)))
(define-fun .def_66 () Real (* (to_real 40000) x5))
(define-fun .def_67 () Real (+ x4 .def_66))
(define-fun .def_68 () Bool (= .def_67 (to_real 0)))
(define-fun .def_75 () Bool (or .def_68 .def_74))
(define-fun .def_95 () Bool (and .def_75 .def_94))
(define-fun .def_86 () Real (* (to_real 2000) x6))
(define-fun .def_87 () Real (+ x5 .def_86))
(define-fun .def_88 () Bool (= .def_87 (to_real 0)))
(define-fun .def_80 () Real (* (to_real 3000) x6))
(define-fun .def_81 () Real (+ x5 .def_80))
(define-fun .def_82 () Bool (= .def_81 (to_real 0)))
(define-fun .def_89 () Bool (or .def_82 .def_88))
(define-fun .def_96 () Bool (and .def_89 .def_95))
(define-fun .def_90 () Bool (<= x6 (to_real 0)))
(define-fun .def_91 () Bool (not .def_90))
(define-fun .def_97 () Bool (and .def_91 .def_96))
(define-fun .def_100 () Bool (and .def_97 .def_99))
(assert .def_100)
(minimize z)
(check-sat)
(get-objectives)
(exit)
